33D32945 STP File, STP Format Version 1.0

SECTION Comments
Name "nsimp_6"
Creator "Warren Smith"
Problem "Euclidean Steiner Tree Problem"
Remark "Converted automatically"
END

SECTION Graph
Nodes 7
END

SECTION Coordinates
DDDDDDD 1 1.00000000000000 0.00000000000000 0.00000000000000 0.00000000000000 0.00000000000000 0.00000000000000 0.00000000000000 
DDDDDDD 2 0.00000000000000 1.00000000000000 0.00000000000000 0.00000000000000 0.00000000000000 0.00000000000000 0.00000000000000 
DDDDDDD 3 0.00000000000000 0.00000000000000 1.00000000000000 0.00000000000000 0.00000000000000 0.00000000000000 0.00000000000000 
DDDDDDD 4 0.00000000000000 0.00000000000000 0.00000000000000 1.00000000000000 0.00000000000000 0.00000000000000 0.00000000000000 
DDDDDDD 5 0.00000000000000 0.00000000000000 0.00000000000000 0.00000000000000 1.00000000000000 0.00000000000000 0.00000000000000 
DDDDDDD 6 0.00000000000000 0.00000000000000 0.00000000000000 0.00000000000000 0.00000000000000 1.00000000000000 0.00000000000000 
DDDDDDD 7 0.00000000000000 0.00000000000000 0.00000000000000 0.00000000000000 0.00000000000000 0.00000000000000 1.00000000000000 
END

EOF
